outputs/case_471.model.txt
declaration_suspected_false = False
query_received = True
query_responded = True
declaration_submitted = True
declaration_truthful = True
forex_amount_ntd_equivalent = 1000000
query_responded_truthfully = True
compliance_6_1 = True
violation_6_1 = False
query_response_ok = True
declaration_made = True
foreign_exchange_sold = 1
violation_query_response = False
penalty = False
declaration_required = True
foreign_exchange_deposited = 1
violation_7 = False